c *********************************
c * Circuit generated by BenCGen
c *
c * CarrySaveAdder_95_95_95_95_96
c *
c * Ports with 1 gate(s): 2
c * Ports with 2 gate(s): 476
c * Total gates: 478
c *********************************
p cnf 763 1622
1 478 0
-1 -478 0
1 -477 0
478 -477 0
-1 -478 477 0
477 -381 0
-477 381 0
1 96 -479 0
-1 96 479 0
1 -96 479 0
-1 -96 -479 0
479 191 -286 0
-479 191 286 0
479 -191 286 0
-479 -191 -286 0
191 -480 0
479 -480 0
-191 -479 480 0
96 -481 0
1 -481 0
-96 -1 481 0
-480 382 0
-481 382 0
480 481 -382 0
2 97 -482 0
-2 97 482 0
2 -97 482 0
-2 -97 -482 0
482 192 -287 0
-482 192 287 0
482 -192 287 0
-482 -192 -287 0
192 -483 0
482 -483 0
-192 -482 483 0
97 -484 0
2 -484 0
-97 -2 484 0
-483 383 0
-484 383 0
483 484 -383 0
3 98 -485 0
-3 98 485 0
3 -98 485 0
-3 -98 -485 0
485 193 -288 0
-485 193 288 0
485 -193 288 0
-485 -193 -288 0
193 -486 0
485 -486 0
-193 -485 486 0
98 -487 0
3 -487 0
-98 -3 487 0
-486 384 0
-487 384 0
486 487 -384 0
4 99 -488 0
-4 99 488 0
4 -99 488 0
-4 -99 -488 0
488 194 -289 0
-488 194 289 0
488 -194 289 0
-488 -194 -289 0
194 -489 0
488 -489 0
-194 -488 489 0
99 -490 0
4 -490 0
-99 -4 490 0
-489 385 0
-490 385 0
489 490 -385 0
5 100 -491 0
-5 100 491 0
5 -100 491 0
-5 -100 -491 0
491 195 -290 0
-491 195 290 0
491 -195 290 0
-491 -195 -290 0
195 -492 0
491 -492 0
-195 -491 492 0
100 -493 0
5 -493 0
-100 -5 493 0
-492 386 0
-493 386 0
492 493 -386 0
6 101 -494 0
-6 101 494 0
6 -101 494 0
-6 -101 -494 0
494 196 -291 0
-494 196 291 0
494 -196 291 0
-494 -196 -291 0
196 -495 0
494 -495 0
-196 -494 495 0
101 -496 0
6 -496 0
-101 -6 496 0
-495 387 0
-496 387 0
495 496 -387 0
7 102 -497 0
-7 102 497 0
7 -102 497 0
-7 -102 -497 0
497 197 -292 0
-497 197 292 0
497 -197 292 0
-497 -197 -292 0
197 -498 0
497 -498 0
-197 -497 498 0
102 -499 0
7 -499 0
-102 -7 499 0
-498 388 0
-499 388 0
498 499 -388 0
8 103 -500 0
-8 103 500 0
8 -103 500 0
-8 -103 -500 0
500 198 -293 0
-500 198 293 0
500 -198 293 0
-500 -198 -293 0
198 -501 0
500 -501 0
-198 -500 501 0
103 -502 0
8 -502 0
-103 -8 502 0
-501 389 0
-502 389 0
501 502 -389 0
9 104 -503 0
-9 104 503 0
9 -104 503 0
-9 -104 -503 0
503 199 -294 0
-503 199 294 0
503 -199 294 0
-503 -199 -294 0
199 -504 0
503 -504 0
-199 -503 504 0
104 -505 0
9 -505 0
-104 -9 505 0
-504 390 0
-505 390 0
504 505 -390 0
10 105 -506 0
-10 105 506 0
10 -105 506 0
-10 -105 -506 0
506 200 -295 0
-506 200 295 0
506 -200 295 0
-506 -200 -295 0
200 -507 0
506 -507 0
-200 -506 507 0
105 -508 0
10 -508 0
-105 -10 508 0
-507 391 0
-508 391 0
507 508 -391 0
11 106 -509 0
-11 106 509 0
11 -106 509 0
-11 -106 -509 0
509 201 -296 0
-509 201 296 0
509 -201 296 0
-509 -201 -296 0
201 -510 0
509 -510 0
-201 -509 510 0
106 -511 0
11 -511 0
-106 -11 511 0
-510 392 0
-511 392 0
510 511 -392 0
12 107 -512 0
-12 107 512 0
12 -107 512 0
-12 -107 -512 0
512 202 -297 0
-512 202 297 0
512 -202 297 0
-512 -202 -297 0
202 -513 0
512 -513 0
-202 -512 513 0
107 -514 0
12 -514 0
-107 -12 514 0
-513 393 0
-514 393 0
513 514 -393 0
13 108 -515 0
-13 108 515 0
13 -108 515 0
-13 -108 -515 0
515 203 -298 0
-515 203 298 0
515 -203 298 0
-515 -203 -298 0
203 -516 0
515 -516 0
-203 -515 516 0
108 -517 0
13 -517 0
-108 -13 517 0
-516 394 0
-517 394 0
516 517 -394 0
14 109 -518 0
-14 109 518 0
14 -109 518 0
-14 -109 -518 0
518 204 -299 0
-518 204 299 0
518 -204 299 0
-518 -204 -299 0
204 -519 0
518 -519 0
-204 -518 519 0
109 -520 0
14 -520 0
-109 -14 520 0
-519 395 0
-520 395 0
519 520 -395 0
15 110 -521 0
-15 110 521 0
15 -110 521 0
-15 -110 -521 0
521 205 -300 0
-521 205 300 0
521 -205 300 0
-521 -205 -300 0
205 -522 0
521 -522 0
-205 -521 522 0
110 -523 0
15 -523 0
-110 -15 523 0
-522 396 0
-523 396 0
522 523 -396 0
16 111 -524 0
-16 111 524 0
16 -111 524 0
-16 -111 -524 0
524 206 -301 0
-524 206 301 0
524 -206 301 0
-524 -206 -301 0
206 -525 0
524 -525 0
-206 -524 525 0
111 -526 0
16 -526 0
-111 -16 526 0
-525 397 0
-526 397 0
525 526 -397 0
17 112 -527 0
-17 112 527 0
17 -112 527 0
-17 -112 -527 0
527 207 -302 0
-527 207 302 0
527 -207 302 0
-527 -207 -302 0
207 -528 0
527 -528 0
-207 -527 528 0
112 -529 0
17 -529 0
-112 -17 529 0
-528 398 0
-529 398 0
528 529 -398 0
18 113 -530 0
-18 113 530 0
18 -113 530 0
-18 -113 -530 0
530 208 -303 0
-530 208 303 0
530 -208 303 0
-530 -208 -303 0
208 -531 0
530 -531 0
-208 -530 531 0
113 -532 0
18 -532 0
-113 -18 532 0
-531 399 0
-532 399 0
531 532 -399 0
19 114 -533 0
-19 114 533 0
19 -114 533 0
-19 -114 -533 0
533 209 -304 0
-533 209 304 0
533 -209 304 0
-533 -209 -304 0
209 -534 0
533 -534 0
-209 -533 534 0
114 -535 0
19 -535 0
-114 -19 535 0
-534 400 0
-535 400 0
534 535 -400 0
20 115 -536 0
-20 115 536 0
20 -115 536 0
-20 -115 -536 0
536 210 -305 0
-536 210 305 0
536 -210 305 0
-536 -210 -305 0
210 -537 0
536 -537 0
-210 -536 537 0
115 -538 0
20 -538 0
-115 -20 538 0
-537 401 0
-538 401 0
537 538 -401 0
21 116 -539 0
-21 116 539 0
21 -116 539 0
-21 -116 -539 0
539 211 -306 0
-539 211 306 0
539 -211 306 0
-539 -211 -306 0
211 -540 0
539 -540 0
-211 -539 540 0
116 -541 0
21 -541 0
-116 -21 541 0
-540 402 0
-541 402 0
540 541 -402 0
22 117 -542 0
-22 117 542 0
22 -117 542 0
-22 -117 -542 0
542 212 -307 0
-542 212 307 0
542 -212 307 0
-542 -212 -307 0
212 -543 0
542 -543 0
-212 -542 543 0
117 -544 0
22 -544 0
-117 -22 544 0
-543 403 0
-544 403 0
543 544 -403 0
23 118 -545 0
-23 118 545 0
23 -118 545 0
-23 -118 -545 0
545 213 -308 0
-545 213 308 0
545 -213 308 0
-545 -213 -308 0
213 -546 0
545 -546 0
-213 -545 546 0
118 -547 0
23 -547 0
-118 -23 547 0
-546 404 0
-547 404 0
546 547 -404 0
24 119 -548 0
-24 119 548 0
24 -119 548 0
-24 -119 -548 0
548 214 -309 0
-548 214 309 0
548 -214 309 0
-548 -214 -309 0
214 -549 0
548 -549 0
-214 -548 549 0
119 -550 0
24 -550 0
-119 -24 550 0
-549 405 0
-550 405 0
549 550 -405 0
25 120 -551 0
-25 120 551 0
25 -120 551 0
-25 -120 -551 0
551 215 -310 0
-551 215 310 0
551 -215 310 0
-551 -215 -310 0
215 -552 0
551 -552 0
-215 -551 552 0
120 -553 0
25 -553 0
-120 -25 553 0
-552 406 0
-553 406 0
552 553 -406 0
26 121 -554 0
-26 121 554 0
26 -121 554 0
-26 -121 -554 0
554 216 -311 0
-554 216 311 0
554 -216 311 0
-554 -216 -311 0
216 -555 0
554 -555 0
-216 -554 555 0
121 -556 0
26 -556 0
-121 -26 556 0
-555 407 0
-556 407 0
555 556 -407 0
27 122 -557 0
-27 122 557 0
27 -122 557 0
-27 -122 -557 0
557 217 -312 0
-557 217 312 0
557 -217 312 0
-557 -217 -312 0
217 -558 0
557 -558 0
-217 -557 558 0
122 -559 0
27 -559 0
-122 -27 559 0
-558 408 0
-559 408 0
558 559 -408 0
28 123 -560 0
-28 123 560 0
28 -123 560 0
-28 -123 -560 0
560 218 -313 0
-560 218 313 0
560 -218 313 0
-560 -218 -313 0
218 -561 0
560 -561 0
-218 -560 561 0
123 -562 0
28 -562 0
-123 -28 562 0
-561 409 0
-562 409 0
561 562 -409 0
29 124 -563 0
-29 124 563 0
29 -124 563 0
-29 -124 -563 0
563 219 -314 0
-563 219 314 0
563 -219 314 0
-563 -219 -314 0
219 -564 0
563 -564 0
-219 -563 564 0
124 -565 0
29 -565 0
-124 -29 565 0
-564 410 0
-565 410 0
564 565 -410 0
30 125 -566 0
-30 125 566 0
30 -125 566 0
-30 -125 -566 0
566 220 -315 0
-566 220 315 0
566 -220 315 0
-566 -220 -315 0
220 -567 0
566 -567 0
-220 -566 567 0
125 -568 0
30 -568 0
-125 -30 568 0
-567 411 0
-568 411 0
567 568 -411 0
31 126 -569 0
-31 126 569 0
31 -126 569 0
-31 -126 -569 0
569 221 -316 0
-569 221 316 0
569 -221 316 0
-569 -221 -316 0
221 -570 0
569 -570 0
-221 -569 570 0
126 -571 0
31 -571 0
-126 -31 571 0
-570 412 0
-571 412 0
570 571 -412 0
32 127 -572 0
-32 127 572 0
32 -127 572 0
-32 -127 -572 0
572 222 -317 0
-572 222 317 0
572 -222 317 0
-572 -222 -317 0
222 -573 0
572 -573 0
-222 -572 573 0
127 -574 0
32 -574 0
-127 -32 574 0
-573 413 0
-574 413 0
573 574 -413 0
33 128 -575 0
-33 128 575 0
33 -128 575 0
-33 -128 -575 0
575 223 -318 0
-575 223 318 0
575 -223 318 0
-575 -223 -318 0
223 -576 0
575 -576 0
-223 -575 576 0
128 -577 0
33 -577 0
-128 -33 577 0
-576 414 0
-577 414 0
576 577 -414 0
34 129 -578 0
-34 129 578 0
34 -129 578 0
-34 -129 -578 0
578 224 -319 0
-578 224 319 0
578 -224 319 0
-578 -224 -319 0
224 -579 0
578 -579 0
-224 -578 579 0
129 -580 0
34 -580 0
-129 -34 580 0
-579 415 0
-580 415 0
579 580 -415 0
35 130 -581 0
-35 130 581 0
35 -130 581 0
-35 -130 -581 0
581 225 -320 0
-581 225 320 0
581 -225 320 0
-581 -225 -320 0
225 -582 0
581 -582 0
-225 -581 582 0
130 -583 0
35 -583 0
-130 -35 583 0
-582 416 0
-583 416 0
582 583 -416 0
36 131 -584 0
-36 131 584 0
36 -131 584 0
-36 -131 -584 0
584 226 -321 0
-584 226 321 0
584 -226 321 0
-584 -226 -321 0
226 -585 0
584 -585 0
-226 -584 585 0
131 -586 0
36 -586 0
-131 -36 586 0
-585 417 0
-586 417 0
585 586 -417 0
37 132 -587 0
-37 132 587 0
37 -132 587 0
-37 -132 -587 0
587 227 -322 0
-587 227 322 0
587 -227 322 0
-587 -227 -322 0
227 -588 0
587 -588 0
-227 -587 588 0
132 -589 0
37 -589 0
-132 -37 589 0
-588 418 0
-589 418 0
588 589 -418 0
38 133 -590 0
-38 133 590 0
38 -133 590 0
-38 -133 -590 0
590 228 -323 0
-590 228 323 0
590 -228 323 0
-590 -228 -323 0
228 -591 0
590 -591 0
-228 -590 591 0
133 -592 0
38 -592 0
-133 -38 592 0
-591 419 0
-592 419 0
591 592 -419 0
39 134 -593 0
-39 134 593 0
39 -134 593 0
-39 -134 -593 0
593 229 -324 0
-593 229 324 0
593 -229 324 0
-593 -229 -324 0
229 -594 0
593 -594 0
-229 -593 594 0
134 -595 0
39 -595 0
-134 -39 595 0
-594 420 0
-595 420 0
594 595 -420 0
40 135 -596 0
-40 135 596 0
40 -135 596 0
-40 -135 -596 0
596 230 -325 0
-596 230 325 0
596 -230 325 0
-596 -230 -325 0
230 -597 0
596 -597 0
-230 -596 597 0
135 -598 0
40 -598 0
-135 -40 598 0
-597 421 0
-598 421 0
597 598 -421 0
41 136 -599 0
-41 136 599 0
41 -136 599 0
-41 -136 -599 0
599 231 -326 0
-599 231 326 0
599 -231 326 0
-599 -231 -326 0
231 -600 0
599 -600 0
-231 -599 600 0
136 -601 0
41 -601 0
-136 -41 601 0
-600 422 0
-601 422 0
600 601 -422 0
42 137 -602 0
-42 137 602 0
42 -137 602 0
-42 -137 -602 0
602 232 -327 0
-602 232 327 0
602 -232 327 0
-602 -232 -327 0
232 -603 0
602 -603 0
-232 -602 603 0
137 -604 0
42 -604 0
-137 -42 604 0
-603 423 0
-604 423 0
603 604 -423 0
43 138 -605 0
-43 138 605 0
43 -138 605 0
-43 -138 -605 0
605 233 -328 0
-605 233 328 0
605 -233 328 0
-605 -233 -328 0
233 -606 0
605 -606 0
-233 -605 606 0
138 -607 0
43 -607 0
-138 -43 607 0
-606 424 0
-607 424 0
606 607 -424 0
44 139 -608 0
-44 139 608 0
44 -139 608 0
-44 -139 -608 0
608 234 -329 0
-608 234 329 0
608 -234 329 0
-608 -234 -329 0
234 -609 0
608 -609 0
-234 -608 609 0
139 -610 0
44 -610 0
-139 -44 610 0
-609 425 0
-610 425 0
609 610 -425 0
45 140 -611 0
-45 140 611 0
45 -140 611 0
-45 -140 -611 0
611 235 -330 0
-611 235 330 0
611 -235 330 0
-611 -235 -330 0
235 -612 0
611 -612 0
-235 -611 612 0
140 -613 0
45 -613 0
-140 -45 613 0
-612 426 0
-613 426 0
612 613 -426 0
46 141 -614 0
-46 141 614 0
46 -141 614 0
-46 -141 -614 0
614 236 -331 0
-614 236 331 0
614 -236 331 0
-614 -236 -331 0
236 -615 0
614 -615 0
-236 -614 615 0
141 -616 0
46 -616 0
-141 -46 616 0
-615 427 0
-616 427 0
615 616 -427 0
47 142 -617 0
-47 142 617 0
47 -142 617 0
-47 -142 -617 0
617 237 -332 0
-617 237 332 0
617 -237 332 0
-617 -237 -332 0
237 -618 0
617 -618 0
-237 -617 618 0
142 -619 0
47 -619 0
-142 -47 619 0
-618 428 0
-619 428 0
618 619 -428 0
48 143 -620 0
-48 143 620 0
48 -143 620 0
-48 -143 -620 0
620 238 -333 0
-620 238 333 0
620 -238 333 0
-620 -238 -333 0
238 -621 0
620 -621 0
-238 -620 621 0
143 -622 0
48 -622 0
-143 -48 622 0
-621 429 0
-622 429 0
621 622 -429 0
49 144 -623 0
-49 144 623 0
49 -144 623 0
-49 -144 -623 0
623 239 -334 0
-623 239 334 0
623 -239 334 0
-623 -239 -334 0
239 -624 0
623 -624 0
-239 -623 624 0
144 -625 0
49 -625 0
-144 -49 625 0
-624 430 0
-625 430 0
624 625 -430 0
50 145 -626 0
-50 145 626 0
50 -145 626 0
-50 -145 -626 0
626 240 -335 0
-626 240 335 0
626 -240 335 0
-626 -240 -335 0
240 -627 0
626 -627 0
-240 -626 627 0
145 -628 0
50 -628 0
-145 -50 628 0
-627 431 0
-628 431 0
627 628 -431 0
51 146 -629 0
-51 146 629 0
51 -146 629 0
-51 -146 -629 0
629 241 -336 0
-629 241 336 0
629 -241 336 0
-629 -241 -336 0
241 -630 0
629 -630 0
-241 -629 630 0
146 -631 0
51 -631 0
-146 -51 631 0
-630 432 0
-631 432 0
630 631 -432 0
52 147 -632 0
-52 147 632 0
52 -147 632 0
-52 -147 -632 0
632 242 -337 0
-632 242 337 0
632 -242 337 0
-632 -242 -337 0
242 -633 0
632 -633 0
-242 -632 633 0
147 -634 0
52 -634 0
-147 -52 634 0
-633 433 0
-634 433 0
633 634 -433 0
53 148 -635 0
-53 148 635 0
53 -148 635 0
-53 -148 -635 0
635 243 -338 0
-635 243 338 0
635 -243 338 0
-635 -243 -338 0
243 -636 0
635 -636 0
-243 -635 636 0
148 -637 0
53 -637 0
-148 -53 637 0
-636 434 0
-637 434 0
636 637 -434 0
54 149 -638 0
-54 149 638 0
54 -149 638 0
-54 -149 -638 0
638 244 -339 0
-638 244 339 0
638 -244 339 0
-638 -244 -339 0
244 -639 0
638 -639 0
-244 -638 639 0
149 -640 0
54 -640 0
-149 -54 640 0
-639 435 0
-640 435 0
639 640 -435 0
55 150 -641 0
-55 150 641 0
55 -150 641 0
-55 -150 -641 0
641 245 -340 0
-641 245 340 0
641 -245 340 0
-641 -245 -340 0
245 -642 0
641 -642 0
-245 -641 642 0
150 -643 0
55 -643 0
-150 -55 643 0
-642 436 0
-643 436 0
642 643 -436 0
56 151 -644 0
-56 151 644 0
56 -151 644 0
-56 -151 -644 0
644 246 -341 0
-644 246 341 0
644 -246 341 0
-644 -246 -341 0
246 -645 0
644 -645 0
-246 -644 645 0
151 -646 0
56 -646 0
-151 -56 646 0
-645 437 0
-646 437 0
645 646 -437 0
57 152 -647 0
-57 152 647 0
57 -152 647 0
-57 -152 -647 0
647 247 -342 0
-647 247 342 0
647 -247 342 0
-647 -247 -342 0
247 -648 0
647 -648 0
-247 -647 648 0
152 -649 0
57 -649 0
-152 -57 649 0
-648 438 0
-649 438 0
648 649 -438 0
58 153 -650 0
-58 153 650 0
58 -153 650 0
-58 -153 -650 0
650 248 -343 0
-650 248 343 0
650 -248 343 0
-650 -248 -343 0
248 -651 0
650 -651 0
-248 -650 651 0
153 -652 0
58 -652 0
-153 -58 652 0
-651 439 0
-652 439 0
651 652 -439 0
59 154 -653 0
-59 154 653 0
59 -154 653 0
-59 -154 -653 0
653 249 -344 0
-653 249 344 0
653 -249 344 0
-653 -249 -344 0
249 -654 0
653 -654 0
-249 -653 654 0
154 -655 0
59 -655 0
-154 -59 655 0
-654 440 0
-655 440 0
654 655 -440 0
60 155 -656 0
-60 155 656 0
60 -155 656 0
-60 -155 -656 0
656 250 -345 0
-656 250 345 0
656 -250 345 0
-656 -250 -345 0
250 -657 0
656 -657 0
-250 -656 657 0
155 -658 0
60 -658 0
-155 -60 658 0
-657 441 0
-658 441 0
657 658 -441 0
61 156 -659 0
-61 156 659 0
61 -156 659 0
-61 -156 -659 0
659 251 -346 0
-659 251 346 0
659 -251 346 0
-659 -251 -346 0
251 -660 0
659 -660 0
-251 -659 660 0
156 -661 0
61 -661 0
-156 -61 661 0
-660 442 0
-661 442 0
660 661 -442 0
62 157 -662 0
-62 157 662 0
62 -157 662 0
-62 -157 -662 0
662 252 -347 0
-662 252 347 0
662 -252 347 0
-662 -252 -347 0
252 -663 0
662 -663 0
-252 -662 663 0
157 -664 0
62 -664 0
-157 -62 664 0
-663 443 0
-664 443 0
663 664 -443 0
63 158 -665 0
-63 158 665 0
63 -158 665 0
-63 -158 -665 0
665 253 -348 0
-665 253 348 0
665 -253 348 0
-665 -253 -348 0
253 -666 0
665 -666 0
-253 -665 666 0
158 -667 0
63 -667 0
-158 -63 667 0
-666 444 0
-667 444 0
666 667 -444 0
64 159 -668 0
-64 159 668 0
64 -159 668 0
-64 -159 -668 0
668 254 -349 0
-668 254 349 0
668 -254 349 0
-668 -254 -349 0
254 -669 0
668 -669 0
-254 -668 669 0
159 -670 0
64 -670 0
-159 -64 670 0
-669 445 0
-670 445 0
669 670 -445 0
65 160 -671 0
-65 160 671 0
65 -160 671 0
-65 -160 -671 0
671 255 -350 0
-671 255 350 0
671 -255 350 0
-671 -255 -350 0
255 -672 0
671 -672 0
-255 -671 672 0
160 -673 0
65 -673 0
-160 -65 673 0
-672 446 0
-673 446 0
672 673 -446 0
66 161 -674 0
-66 161 674 0
66 -161 674 0
-66 -161 -674 0
674 256 -351 0
-674 256 351 0
674 -256 351 0
-674 -256 -351 0
256 -675 0
674 -675 0
-256 -674 675 0
161 -676 0
66 -676 0
-161 -66 676 0
-675 447 0
-676 447 0
675 676 -447 0
67 162 -677 0
-67 162 677 0
67 -162 677 0
-67 -162 -677 0
677 257 -352 0
-677 257 352 0
677 -257 352 0
-677 -257 -352 0
257 -678 0
677 -678 0
-257 -677 678 0
162 -679 0
67 -679 0
-162 -67 679 0
-678 448 0
-679 448 0
678 679 -448 0
68 163 -680 0
-68 163 680 0
68 -163 680 0
-68 -163 -680 0
680 258 -353 0
-680 258 353 0
680 -258 353 0
-680 -258 -353 0
258 -681 0
680 -681 0
-258 -680 681 0
163 -682 0
68 -682 0
-163 -68 682 0
-681 449 0
-682 449 0
681 682 -449 0
69 164 -683 0
-69 164 683 0
69 -164 683 0
-69 -164 -683 0
683 259 -354 0
-683 259 354 0
683 -259 354 0
-683 -259 -354 0
259 -684 0
683 -684 0
-259 -683 684 0
164 -685 0
69 -685 0
-164 -69 685 0
-684 450 0
-685 450 0
684 685 -450 0
70 165 -686 0
-70 165 686 0
70 -165 686 0
-70 -165 -686 0
686 260 -355 0
-686 260 355 0
686 -260 355 0
-686 -260 -355 0
260 -687 0
686 -687 0
-260 -686 687 0
165 -688 0
70 -688 0
-165 -70 688 0
-687 451 0
-688 451 0
687 688 -451 0
71 166 -689 0
-71 166 689 0
71 -166 689 0
-71 -166 -689 0
689 261 -356 0
-689 261 356 0
689 -261 356 0
-689 -261 -356 0
261 -690 0
689 -690 0
-261 -689 690 0
166 -691 0
71 -691 0
-166 -71 691 0
-690 452 0
-691 452 0
690 691 -452 0
72 167 -692 0
-72 167 692 0
72 -167 692 0
-72 -167 -692 0
692 262 -357 0
-692 262 357 0
692 -262 357 0
-692 -262 -357 0
262 -693 0
692 -693 0
-262 -692 693 0
167 -694 0
72 -694 0
-167 -72 694 0
-693 453 0
-694 453 0
693 694 -453 0
73 168 -695 0
-73 168 695 0
73 -168 695 0
-73 -168 -695 0
695 263 -358 0
-695 263 358 0
695 -263 358 0
-695 -263 -358 0
263 -696 0
695 -696 0
-263 -695 696 0
168 -697 0
73 -697 0
-168 -73 697 0
-696 454 0
-697 454 0
696 697 -454 0
74 169 -698 0
-74 169 698 0
74 -169 698 0
-74 -169 -698 0
698 264 -359 0
-698 264 359 0
698 -264 359 0
-698 -264 -359 0
264 -699 0
698 -699 0
-264 -698 699 0
169 -700 0
74 -700 0
-169 -74 700 0
-699 455 0
-700 455 0
699 700 -455 0
75 170 -701 0
-75 170 701 0
75 -170 701 0
-75 -170 -701 0
701 265 -360 0
-701 265 360 0
701 -265 360 0
-701 -265 -360 0
265 -702 0
701 -702 0
-265 -701 702 0
170 -703 0
75 -703 0
-170 -75 703 0
-702 456 0
-703 456 0
702 703 -456 0
76 171 -704 0
-76 171 704 0
76 -171 704 0
-76 -171 -704 0
704 266 -361 0
-704 266 361 0
704 -266 361 0
-704 -266 -361 0
266 -705 0
704 -705 0
-266 -704 705 0
171 -706 0
76 -706 0
-171 -76 706 0
-705 457 0
-706 457 0
705 706 -457 0
77 172 -707 0
-77 172 707 0
77 -172 707 0
-77 -172 -707 0
707 267 -362 0
-707 267 362 0
707 -267 362 0
-707 -267 -362 0
267 -708 0
707 -708 0
-267 -707 708 0
172 -709 0
77 -709 0
-172 -77 709 0
-708 458 0
-709 458 0
708 709 -458 0
78 173 -710 0
-78 173 710 0
78 -173 710 0
-78 -173 -710 0
710 268 -363 0
-710 268 363 0
710 -268 363 0
-710 -268 -363 0
268 -711 0
710 -711 0
-268 -710 711 0
173 -712 0
78 -712 0
-173 -78 712 0
-711 459 0
-712 459 0
711 712 -459 0
79 174 -713 0
-79 174 713 0
79 -174 713 0
-79 -174 -713 0
713 269 -364 0
-713 269 364 0
713 -269 364 0
-713 -269 -364 0
269 -714 0
713 -714 0
-269 -713 714 0
174 -715 0
79 -715 0
-174 -79 715 0
-714 460 0
-715 460 0
714 715 -460 0
80 175 -716 0
-80 175 716 0
80 -175 716 0
-80 -175 -716 0
716 270 -365 0
-716 270 365 0
716 -270 365 0
-716 -270 -365 0
270 -717 0
716 -717 0
-270 -716 717 0
175 -718 0
80 -718 0
-175 -80 718 0
-717 461 0
-718 461 0
717 718 -461 0
81 176 -719 0
-81 176 719 0
81 -176 719 0
-81 -176 -719 0
719 271 -366 0
-719 271 366 0
719 -271 366 0
-719 -271 -366 0
271 -720 0
719 -720 0
-271 -719 720 0
176 -721 0
81 -721 0
-176 -81 721 0
-720 462 0
-721 462 0
720 721 -462 0
82 177 -722 0
-82 177 722 0
82 -177 722 0
-82 -177 -722 0
722 272 -367 0
-722 272 367 0
722 -272 367 0
-722 -272 -367 0
272 -723 0
722 -723 0
-272 -722 723 0
177 -724 0
82 -724 0
-177 -82 724 0
-723 463 0
-724 463 0
723 724 -463 0
83 178 -725 0
-83 178 725 0
83 -178 725 0
-83 -178 -725 0
725 273 -368 0
-725 273 368 0
725 -273 368 0
-725 -273 -368 0
273 -726 0
725 -726 0
-273 -725 726 0
178 -727 0
83 -727 0
-178 -83 727 0
-726 464 0
-727 464 0
726 727 -464 0
84 179 -728 0
-84 179 728 0
84 -179 728 0
-84 -179 -728 0
728 274 -369 0
-728 274 369 0
728 -274 369 0
-728 -274 -369 0
274 -729 0
728 -729 0
-274 -728 729 0
179 -730 0
84 -730 0
-179 -84 730 0
-729 465 0
-730 465 0
729 730 -465 0
85 180 -731 0
-85 180 731 0
85 -180 731 0
-85 -180 -731 0
731 275 -370 0
-731 275 370 0
731 -275 370 0
-731 -275 -370 0
275 -732 0
731 -732 0
-275 -731 732 0
180 -733 0
85 -733 0
-180 -85 733 0
-732 466 0
-733 466 0
732 733 -466 0
86 181 -734 0
-86 181 734 0
86 -181 734 0
-86 -181 -734 0
734 276 -371 0
-734 276 371 0
734 -276 371 0
-734 -276 -371 0
276 -735 0
734 -735 0
-276 -734 735 0
181 -736 0
86 -736 0
-181 -86 736 0
-735 467 0
-736 467 0
735 736 -467 0
87 182 -737 0
-87 182 737 0
87 -182 737 0
-87 -182 -737 0
737 277 -372 0
-737 277 372 0
737 -277 372 0
-737 -277 -372 0
277 -738 0
737 -738 0
-277 -737 738 0
182 -739 0
87 -739 0
-182 -87 739 0
-738 468 0
-739 468 0
738 739 -468 0
88 183 -740 0
-88 183 740 0
88 -183 740 0
-88 -183 -740 0
740 278 -373 0
-740 278 373 0
740 -278 373 0
-740 -278 -373 0
278 -741 0
740 -741 0
-278 -740 741 0
183 -742 0
88 -742 0
-183 -88 742 0
-741 469 0
-742 469 0
741 742 -469 0
89 184 -743 0
-89 184 743 0
89 -184 743 0
-89 -184 -743 0
743 279 -374 0
-743 279 374 0
743 -279 374 0
-743 -279 -374 0
279 -744 0
743 -744 0
-279 -743 744 0
184 -745 0
89 -745 0
-184 -89 745 0
-744 470 0
-745 470 0
744 745 -470 0
90 185 -746 0
-90 185 746 0
90 -185 746 0
-90 -185 -746 0
746 280 -375 0
-746 280 375 0
746 -280 375 0
-746 -280 -375 0
280 -747 0
746 -747 0
-280 -746 747 0
185 -748 0
90 -748 0
-185 -90 748 0
-747 471 0
-748 471 0
747 748 -471 0
91 186 -749 0
-91 186 749 0
91 -186 749 0
-91 -186 -749 0
749 281 -376 0
-749 281 376 0
749 -281 376 0
-749 -281 -376 0
281 -750 0
749 -750 0
-281 -749 750 0
186 -751 0
91 -751 0
-186 -91 751 0
-750 472 0
-751 472 0
750 751 -472 0
92 187 -752 0
-92 187 752 0
92 -187 752 0
-92 -187 -752 0
752 282 -377 0
-752 282 377 0
752 -282 377 0
-752 -282 -377 0
282 -753 0
752 -753 0
-282 -752 753 0
187 -754 0
92 -754 0
-187 -92 754 0
-753 473 0
-754 473 0
753 754 -473 0
93 188 -755 0
-93 188 755 0
93 -188 755 0
-93 -188 -755 0
755 283 -378 0
-755 283 378 0
755 -283 378 0
-755 -283 -378 0
283 -756 0
755 -756 0
-283 -755 756 0
188 -757 0
93 -757 0
-188 -93 757 0
-756 474 0
-757 474 0
756 757 -474 0
94 189 -758 0
-94 189 758 0
94 -189 758 0
-94 -189 -758 0
758 284 -379 0
-758 284 379 0
758 -284 379 0
-758 -284 -379 0
284 -759 0
758 -759 0
-284 -758 759 0
189 -760 0
94 -760 0
-189 -94 760 0
-759 475 0
-760 475 0
759 760 -475 0
95 190 -761 0
-95 190 761 0
95 -190 761 0
-95 -190 -761 0
761 285 -380 0
-761 285 380 0
761 -285 380 0
-761 -285 -380 0
285 -762 0
761 -762 0
-285 -761 762 0
190 -763 0
95 -763 0
-190 -95 763 0
-762 476 0
-763 476 0
762 763 -476 0
